53 97 49 40 45 37 84 35 50 71 32 67 56 72 53 49 74 32 62 89 11 16 27 73 37 
64 28 39 34 82 94 82 82 50 88 88 45 53 14 74 47 93 76 33 43 22 59 49 88 76 
27 35 73 47 18 47 46 97 97 41 31 30 69 24 90 33 62 50 49 33 45 36 88 95 50 
16 78 13 96 96 64 60 72 44 69 74 16 33 69 46 18 10 94 47 10 59 12 66 35 45 
621.00
